Cs1 Pb1 I3
1.0
        6.4141449928         0.0000000000         0.0000000000
        0.0000000000         6.4141449928         0.0000000000
        0.0000000000         0.0000000000         6.4141449928
   Cs   Pb    I
    1    1    3
Direct
     0.500000000         0.500000000         0.500000000
     0.000000000         0.000000000         0.000000000
     0.000000000         0.000000000         0.500000000
     0.000000000         0.500000000         0.000000000
     0.500000000         0.000000000         0.000000000
